s td 21 6 25
b 1 1 10 14
b 2 8 20
b 3 16 22
b 4 22 23
b 5 4 21 24
b 6 3 10 14 23
b 7 7 11 19
b 8 9 13 18
b 9 2 11 19
b 10 12 15 23
b 11 13 15 18
b 12 5 13 20 25
b 13 13 15 20 25
b 14 15 17 20 25
b 15 2 6 15 21
b 16 10 15 17 25
b 17 2 4 10 14 15 19
b 18 2 4 14 15 19 21
b 19 10 14 15 19 23
b 20 4 10 15 25
b 21 23
1 17
2 14
3 4
4 21
5 18
6 19
7 9
8 11
9 17
10 19
11 13
12 13
13 14
14 16
15 18
16 20
17 18
17 19
17 20
19 21
